language ESSENCE' 1.0

letting jobs = 102
letting horizon = 797
letting resourcesRenew = 2
letting resourcesNonrenew = 2
letting resourceLimits = [10, 11, 168, 180]
letting successors = [[2, 3, 4, 5, 6, 7, 9, 14, 15], [25, 18, 17, 13, 12, 11, 10], [21, 19, 18, 17, 16, 8], [25, 24, 22, 21, 18, 17, 16, 12], [25, 24, 22, 18, 17, 16, 13], [28, 26, 25, 24, 23, 22, 13], [35, 29, 28, 27, 26, 24, 23, 22, 20, 18], [28, 26, 24, 23, 22, 13], [28, 26, 24, 23, 22, 13], [37, 24, 22, 20, 16], [41, 30, 29, 28, 27, 26, 24, 23, 22], [32, 30, 29, 28, 26, 23, 19], [38, 37, 35, 32, 31, 30, 29, 27, 20], [38, 37, 35, 31, 30, 27, 24, 20], [38, 37, 35, 32, 28, 26, 23, 20], [41, 38, 35, 28, 27, 26, 23], [41, 38, 32, 28, 26, 23], [44, 43, 42, 41, 37, 34, 33, 32, 31, 30], [44, 42, 41, 40, 38, 37, 31, 27], [51, 46, 45, 44, 43, 42, 41, 40, 39, 36, 34, 33], [44, 41, 40, 36, 35, 34, 31], [43, 42, 38, 36, 34, 31], [51, 46, 45, 44, 42, 40, 39, 34], [48, 46, 45, 43, 42, 40, 33, 32], [52, 48, 44, 43, 42, 40, 31], [48, 43, 40, 36, 31], [59, 51, 45, 43, 39, 36, 34], [51, 49, 46, 43, 42, 40, 34], [51, 48, 47, 46, 43, 42, 36, 33], [59, 53, 52, 51, 48, 45, 40, 39], [60, 55, 51, 50, 46, 45, 39], [60, 54, 49, 36], [67, 66, 61, 60, 56, 55, 54, 53, 52, 50], [60, 56, 53, 52, 50, 48, 47], [61, 59, 54, 53, 52, 45, 42], [73, 67, 66, 61, 57, 56, 53, 52, 50], [66, 62, 60, 58, 55, 47], [66, 61, 58, 55, 54, 53, 52], [66, 64, 49, 47], [62, 60, 55, 47], [73, 67, 66, 62, 57, 56, 55, 53], [73, 67, 66, 64, 63, 62, 60, 58, 57], [73, 66, 63, 62, 58, 57, 55], [70, 67, 61, 60, 55, 54], [73, 66, 64, 63, 62, 58, 57], [67, 66, 62, 59, 58, 53], [76, 67, 63, 61, 54], [74, 73, 68, 65, 64, 63, 62], [73, 70, 58, 57], [79, 68, 65, 64, 63, 58], [76, 73, 70, 69, 68, 67, 63], [68, 65, 63, 62], [74, 70, 69, 68, 65, 63], [79, 73, 69, 57], [76, 74, 69, 68, 65, 64], [81, 79, 78, 76, 75, 74, 68], [75, 74, 68, 65], [83, 78, 77, 76, 75, 74, 72, 69], [78, 77, 76, 75, 72, 71, 69], [79, 75, 74, 69, 68], [75, 72, 68], [86, 76, 70, 69], [85, 83, 78, 77, 75, 72], [83, 80, 75, 72], [85, 83, 78, 72], [85, 78, 77, 72], [77, 75, 71], [86, 82, 77, 71], [101, 100, 99, 98, 93, 84, 82, 81, 80], [99, 93, 92, 85, 84, 83, 82, 79], [101, 100, 99, 90, 84, 83, 80], [101, 93, 86, 84, 82, 81], [93, 85, 75], [101, 93, 92, 90, 87, 86, 82], [92, 90, 87, 86, 82], [100, 99, 98, 97, 96, 91, 90, 89, 87], [100, 99, 98, 96, 90, 89, 87, 84], [99, 98, 96, 93, 90, 89, 87, 84], [100, 98, 96, 91, 90, 89, 87], [97, 96, 92, 91, 89, 85], [97, 96, 92, 90, 89, 88], [97, 96, 91, 89, 88], [98, 95, 91], [97, 88], [87], [100, 99, 98], [88], [95, 94], [94], [94], [94], [94], [94], [102], [102], [102], [102], [102], [102], [102], [102], []]
letting durations = [[0], [5, 8, 10], [2, 6, 9], [3, 8, 10], [1, 1, 7], [1, 6, 8], [7, 8, 8], [1, 8, 9], [1, 4, 8], [3, 5, 10], [5, 6, 7], [1, 8, 9], [2, 5, 8], [8, 10, 10], [5, 7, 9], [1, 2, 3], [1, 1, 6], [3, 6, 7], [1, 1, 6], [2, 3, 8], [8, 9, 10], [4, 5, 7], [4, 5, 8], [3, 7, 10], [1, 2, 9], [2, 2, 3], [1, 5, 9], [1, 1, 3], [2, 3, 8], [7, 8, 9], [4, 5, 8], [1, 6, 9], [3, 7, 9], [1, 6, 7], [2, 2, 3], [4, 4, 10], [1, 7, 8], [4, 4, 5], [6, 8, 9], [3, 9, 9], [2, 7, 8], [1, 4, 8], [4, 5, 9], [5, 9, 9], [2, 2, 7], [7, 8, 10], [3, 10, 10], [1, 5, 9], [1, 6, 8], [3, 4, 7], [8, 8, 10], [2, 3, 6], [1, 5, 8], [1, 4, 7], [1, 6, 8], [5, 8, 8], [2, 4, 7], [2, 7, 8], [3, 3, 6], [1, 4, 5], [4, 5, 7], [2, 6, 9], [3, 5, 9], [3, 4, 8], [8, 9, 9], [2, 2, 10], [3, 7, 10], [5, 7, 9], [2, 10, 10], [3, 7, 10], [4, 9, 10], [8, 8, 10], [1, 3, 6], [6, 6, 7], [2, 3, 4], [1, 5, 6], [8, 9, 9], [1, 5, 8], [4, 8, 9], [4, 7, 10], [1, 4, 9], [7, 7, 8], [1, 3, 10], [2, 6, 9], [7, 8, 9], [1, 6, 7], [3, 4, 6], [1, 4, 5], [5, 9, 10], [1, 2, 8], [3, 5, 7], [4, 9, 10], [2, 5, 6], [4, 4, 10], [3, 8, 10], [1, 2, 2], [2, 3, 8], [5, 8, 9], [2, 3, 4], [4, 6, 9], [2, 6, 8], [0]]
letting resourceUsage = [[[0, 0, 0, 0]], [[4, 0, 0, 7], [0, 2, 0, 6], [0, 2, 0, 5]], [[0, 3, 0, 6], [0, 3, 0, 5], [0, 3, 0, 4]], [[2, 0, 0, 8], [0, 3, 7, 0], [1, 0, 0, 3]], [[0, 3, 10, 0], [0, 2, 0, 2], [0, 1, 0, 1]], [[2, 0, 7, 0], [0, 2, 0, 7], [2, 0, 0, 4]], [[4, 0, 9, 0], [4, 0, 5, 0], [0, 2, 0, 7]], [[4, 0, 0, 10], [3, 0, 4, 0], [1, 0, 0, 9]], [[0, 2, 0, 9], [0, 1, 3, 0], [1, 0, 3, 0]], [[5, 0, 10, 0], [0, 3, 7, 0], [0, 1, 6, 0]], [[0, 3, 8, 0], [0, 3, 6, 0], [0, 2, 0, 3]], [[0, 4, 0, 6], [4, 0, 0, 5], [4, 0, 3, 0]], [[0, 5, 8, 0], [0, 4, 0, 3], [1, 0, 1, 0]], [[0, 2, 0, 8], [2, 0, 9, 0], [0, 1, 0, 1]], [[4, 0, 0, 9], [0, 3, 5, 0], [0, 3, 2, 0]], [[0, 4, 8, 0], [0, 2, 6, 0], [2, 0, 6, 0]], [[3, 0, 3, 0], [0, 1, 2, 0], [2, 0, 0, 1]], [[0, 2, 9, 0], [4, 0, 5, 0], [2, 0, 0, 6]], [[5, 0, 5, 0], [4, 0, 0, 7], [4, 0, 0, 6]], [[0, 3, 6, 0], [0, 3, 3, 0], [0, 2, 0, 3]], [[0, 4, 0, 10], [2, 0, 1, 0], [0, 2, 0, 4]], [[0, 4, 9, 0], [0, 3, 9, 0], [3, 0, 9, 0]], [[0, 2, 0, 8], [2, 0, 1, 0], [0, 1, 1, 0]], [[2, 0, 9, 0], [0, 3, 9, 0], [2, 0, 0, 1]], [[0, 5, 4, 0], [2, 0, 2, 0], [0, 3, 0, 5]], [[0, 3, 0, 9], [0, 2, 8, 0], [0, 2, 0, 9]], [[0, 1, 9, 0], [3, 0, 8, 0], [3, 0, 7, 0]], [[3, 0, 0, 4], [0, 3, 7, 0], [3, 0, 0, 1]], [[0, 3, 6, 0], [0, 2, 0, 5], [3, 0, 0, 2]], [[4, 0, 0, 2], [3, 0, 4, 0], [3, 0, 3, 0]], [[0, 4, 5, 0], [0, 3, 4, 0], [2, 0, 0, 3]], [[4, 0, 0, 5], [4, 0, 0, 4], [0, 2, 0, 1]], [[0, 1, 0, 9], [0, 1, 2, 0], [0, 1, 0, 5]], [[1, 0, 0, 2], [1, 0, 7, 0], [1, 0, 0, 1]], [[0, 5, 0, 5], [2, 0, 0, 4], [1, 0, 0, 4]], [[3, 0, 0, 5], [0, 1, 3, 0], [1, 0, 0, 2]], [[3, 0, 0, 4], [0, 4, 0, 3], [0, 4, 0, 2]], [[2, 0, 0, 7], [0, 3, 3, 0], [2, 0, 0, 1]], [[1, 0, 6, 0], [1, 0, 5, 0], [1, 0, 4, 0]], [[0, 3, 0, 8], [0, 3, 0, 7], [3, 0, 0, 7]], [[0, 3, 0, 10], [0, 2, 1, 0], [0, 1, 0, 9]], [[2, 0, 0, 7], [2, 0, 0, 6], [0, 1, 0, 5]], [[0, 5, 0, 6], [0, 3, 0, 6], [1, 0, 0, 6]], [[0, 4, 0, 8], [3, 0, 7, 0], [1, 0, 0, 3]], [[1, 0, 10, 0], [1, 0, 0, 2], [0, 2, 0, 1]], [[5, 0, 7, 0], [3, 0, 0, 7], [3, 0, 0, 4]], [[2, 0, 9, 0], [1, 0, 5, 0], [1, 0, 0, 7]], [[0, 3, 0, 10], [3, 0, 4, 0], [0, 2, 0, 9]], [[0, 1, 0, 9], [0, 1, 3, 0], [2, 0, 3, 0]], [[0, 3, 10, 0], [0, 2, 7, 0], [0, 2, 6, 0]], [[5, 0, 8, 0], [0, 1, 6, 0], [0, 1, 0, 3]], [[3, 0, 0, 7], [3, 0, 0, 4], [3, 0, 0, 3]], [[2, 0, 6, 0], [2, 0, 5, 0], [0, 2, 3, 0]], [[0, 4, 2, 0], [0, 4, 0, 3], [0, 4, 1, 0]], [[0, 1, 0, 8], [0, 1, 3, 0], [4, 0, 1, 0]], [[0, 3, 3, 0], [2, 0, 0, 7], [1, 0, 1, 0]], [[3, 0, 0, 9], [2, 0, 0, 9], [0, 1, 0, 9]], [[1, 0, 3, 0], [1, 0, 2, 0], [1, 0, 0, 6]], [[4, 0, 1, 0], [4, 0, 0, 4], [4, 0, 0, 3]], [[5, 0, 3, 0], [0, 4, 1, 0], [0, 4, 0, 1]], [[4, 0, 10, 0], [0, 1, 0, 4], [2, 0, 0, 3]], [[2, 0, 4, 0], [1, 0, 0, 6], [0, 3, 0, 6]], [[4, 0, 2, 0], [4, 0, 0, 10], [0, 3, 1, 0]], [[3, 0, 8, 0], [0, 2, 6, 0], [0, 2, 3, 0]], [[3, 0, 4, 0], [0, 2, 0, 5], [0, 1, 2, 0]], [[3, 0, 6, 0], [0, 3, 4, 0], [2, 0, 4, 0]], [[0, 4, 0, 8], [1, 0, 0, 4], [1, 0, 0, 3]], [[0, 3, 0, 8], [0, 2, 0, 7], [3, 0, 0, 4]], [[3, 0, 7, 0], [0, 3, 0, 1], [3, 0, 0, 1]], [[0, 2, 0, 9], [0, 2, 0, 8], [2, 0, 3, 0]], [[2, 0, 9, 0], [0, 3, 6, 0], [0, 3, 5, 0]], [[0, 3, 8, 0], [2, 0, 5, 0], [0, 2, 5, 0]], [[0, 2, 7, 0], [0, 2, 0, 1], [0, 1, 0, 1]], [[4, 0, 0, 8], [0, 4, 0, 5], [0, 4, 0, 4]], [[0, 5, 10, 0], [0, 4, 0, 4], [4, 0, 8, 0]], [[3, 0, 0, 8], [0, 2, 0, 5], [0, 2, 0, 4]], [[0, 3, 6, 0], [3, 0, 5, 0], [3, 0, 0, 8]], [[0, 2, 7, 0], [0, 2, 4, 0], [0, 2, 2, 0]], [[0, 2, 0, 8], [2, 0, 0, 4], [1, 0, 8, 0]], [[0, 5, 0, 7], [0, 4, 4, 0], [0, 3, 4, 0]], [[3, 0, 0, 7], [0, 4, 0, 6], [0, 4, 0, 5]], [[0, 2, 0, 7], [3, 0, 3, 0], [0, 1, 0, 2]], [[0, 3, 0, 6], [4, 0, 6, 0], [4, 0, 0, 3]], [[0, 2, 0, 2], [3, 0, 6, 0], [3, 0, 4, 0]], [[0, 1, 0, 5], [3, 0, 7, 0], [3, 0, 0, 1]], [[1, 0, 0, 6], [0, 3, 4, 0], [1, 0, 0, 5]], [[4, 0, 7, 0], [4, 0, 0, 3], [0, 5, 4, 0]], [[0, 4, 7, 0], [2, 0, 0, 1], [0, 3, 1, 0]], [[0, 3, 9, 0], [0, 2, 0, 5], [5, 0, 5, 0]], [[3, 0, 0, 8], [3, 0, 3, 0], [2, 0, 2, 0]], [[4, 0, 0, 9], [0, 4, 2, 0], [0, 4, 1, 0]], [[3, 0, 0, 7], [0, 3, 0, 7], [0, 3, 1, 0]], [[2, 0, 8, 0], [2, 0, 0, 4], [1, 0, 6, 0]], [[0, 1, 0, 9], [3, 0, 3, 0], [0, 1, 0, 5]], [[0, 5, 0, 4], [0, 3, 0, 3], [0, 3, 0, 2]], [[0, 3, 3, 0], [4, 0, 0, 8], [0, 1, 1, 0]], [[0, 5, 6, 0], [3, 0, 4, 0], [2, 0, 2, 0]], [[0, 5, 3, 0], [0, 3, 2, 0], [0, 2, 1, 0]], [[3, 0, 8, 0], [0, 4, 0, 2], [2, 0, 0, 1]], [[4, 0, 0, 9], [0, 1, 6, 0], [0, 1, 0, 5]], [[4, 0, 8, 0], [0, 1, 3, 0], [2, 0, 3, 0]], [[0, 0, 0, 0]]]
